 vasp.5.4.4.18Apr17-6-g9f103f2a35 (build Apr 25 2017 10:43:04) complex

 executed on             LinuxIFC date 2017.11.30  20:55:41

 INCAR:
 POTCAR:    PAW_PBE O 08Apr2002
 POTCAR:    PAW_PBE Mg 13Apr2007
 POTCAR:    PAW_PBE O 08Apr2002
   VRHFIN =O: s2p4

   TITEL  = PAW_PBE O 08Apr2002
   POMASS =   16.000; ZVAL   =    6.000    mass and valenz
   ENMAX  =  400.000; ENMIN  =  300.000 eV

 POTCAR:    PAW_PBE Mg 13Apr2007
   VRHFIN =Mg: s2p0

   TITEL  = PAW_PBE Mg 13Apr2007
   POMASS =   24.305; ZVAL   =    2.000    mass and valenz
   ENMAX  =  200.000; ENMIN  =  100.000 eV

  PAW_PBE O 08Apr2002                   :
  PAW_PBE Mg 13Apr2007                  :

 POSCAR: O Mg
  positions in direct lattice
 exchange correlation table for  LEXCH =       14
   RHO(1)=    0.500       N(1)  =     2000
   RHO(2)=  100.500       N(2)  =     4000

 ion  position               nearest neighbor table
   1  0.250  0.000  0.000-  33 2.08  37 2.08  49 2.08  50 2.08  57 2.08  59 2.08
   2  0.250  0.000  0.500-  34 2.08  38 2.08  49 2.08  50 2.08  58 2.08  60 2.08
   3  0.250  0.500  0.000-  35 2.08  39 2.08  51 2.08  52 2.08  57 2.08  59 2.08
   4  0.250  0.500  0.500-  36 2.08  40 2.08  51 2.08  52 2.08  58 2.08  60 2.08
   5  0.750  0.000  0.000-  33 2.08  37 2.08  53 2.08  54 2.08  61 2.08  63 2.08
   6  0.750  0.000  0.500-  34 2.08  38 2.08  53 2.08  54 2.08  62 2.08  64 2.08
   7  0.750  0.500  0.000-  35 2.08  39 2.08  55 2.08  56 2.08  61 2.08  63 2.08
   8  0.750  0.500  0.500-  36 2.08  40 2.08  55 2.08  56 2.08  62 2.08  64 2.08
   9  0.250  0.250  0.250-  41 2.08  45 2.08  49 2.08  51 2.08  57 2.08  58 2.08
  10  0.250  0.250  0.750-  42 2.08  46 2.08  50 2.08  52 2.08  57 2.08  58 2.08
  11  0.250  0.750  0.250-  43 2.08  47 2.08  49 2.08  51 2.08  59 2.08  60 2.08
  12  0.250  0.750  0.750-  44 2.08  48 2.08  50 2.08  52 2.08  59 2.08  60 2.08
  13  0.750  0.250  0.250-  41 2.08  45 2.08  53 2.08  55 2.08  61 2.08  62 2.08
  14  0.750  0.250  0.750-  42 2.08  46 2.08  54 2.08  56 2.08  61 2.08  62 2.08
  15  0.750  0.750  0.250-  43 2.08  47 2.08  53 2.08  55 2.08  63 2.08  64 2.08
  16  0.750  0.750  0.750-  44 2.08  48 2.08  54 2.08  56 2.08  63 2.08  64 2.08
  17  0.000  0.000  0.250-  33 2.08  34 2.08  41 2.08  43 2.08  49 2.08  53 2.08
  18  0.000  0.000  0.750-  33 2.08  34 2.08  42 2.08  44 2.08  50 2.08  54 2.08
  19  0.000  0.500  0.250-  35 2.08  36 2.08  41 2.08  43 2.08  51 2.08  55 2.08
  20  0.000  0.500  0.750-  35 2.08  36 2.08  42 2.08  44 2.08  52 2.08  56 2.08
  21  0.500  0.000  0.250-  37 2.08  38 2.08  45 2.08  47 2.08  49 2.08  53 2.08
  22  0.500  0.000  0.750-  37 2.08  38 2.08  46 2.08  48 2.08  50 2.08  54 2.08
  23  0.500  0.500  0.250-  39 2.08  40 2.08  45 2.08  47 2.08  51 2.08  55 2.08
  24  0.500  0.500  0.750-  39 2.08  40 2.08  46 2.08  48 2.08  52 2.08  56 2.08
  25  0.000  0.250  0.000-  33 2.08  35 2.08  41 2.08  42 2.08  57 2.08  61 2.08
  26  0.000  0.250  0.500-  34 2.08  36 2.08  41 2.08  42 2.08  58 2.08  62 2.08
  27  0.000  0.750  0.000-  33 2.08  35 2.08  43 2.08  44 2.08  59 2.08  63 2.08
  28  0.000  0.750  0.500-  34 2.08  36 2.08  43 2.08  44 2.08  60 2.08  64 2.08
  29  0.500  0.250  0.000-  37 2.08  39 2.08  45 2.08  46 2.08  57 2.08  61 2.08
  30  0.500  0.250  0.500-  38 2.08  40 2.08  45 2.08  46 2.08  58 2.08  62 2.08
  31  0.500  0.750  0.000-  37 2.08  39 2.08  47 2.08  48 2.08  59 2.08  63 2.08
  32  0.500  0.750  0.500-  38 2.08  40 2.08  47 2.08  48 2.08  60 2.08  64 2.08
  33  0.000  0.000  0.000-   1 2.08   5 2.08  17 2.08  18 2.08  25 2.08  27 2.08  41 2.95  42 2.95
                            43 2.95  44 2.95  49 2.95  50 2.95  53 2.95  54 2.95  57 2.95  59 2.95
  34  0.000  0.000  0.500-   2 2.08   6 2.08  17 2.08  18 2.08  26 2.08  28 2.08  41 2.95  42 2.95
                            43 2.95  44 2.95  49 2.95  50 2.95  53 2.95  54 2.95  58 2.95  60 2.95
  35  0.000  0.500  0.000-   3 2.08   7 2.08  19 2.08  20 2.08  25 2.08  27 2.08  41 2.95  42 2.95
                            43 2.95  44 2.95  51 2.95  52 2.95  55 2.95  56 2.95  57 2.95  59 2.95
  36  0.000  0.500  0.500-   4 2.08   8 2.08  19 2.08  20 2.08  26 2.08  28 2.08  41 2.95  42 2.95
                            43 2.95  44 2.95  51 2.95  52 2.95  55 2.95  56 2.95  58 2.95  60 2.95
  37  0.500  0.000  0.000-   1 2.08   5 2.08  21 2.08  22 2.08  29 2.08  31 2.08  45 2.95  46 2.95
                            47 2.95  48 2.95  49 2.95  50 2.95  53 2.95  54 2.95  57 2.95  59 2.95
  38  0.500  0.000  0.500-   2 2.08   6 2.08  21 2.08  22 2.08  30 2.08  32 2.08  45 2.95  46 2.95
                            47 2.95  48 2.95  49 2.95  50 2.95  53 2.95  54 2.95  58 2.95  60 2.95
  39  0.500  0.500  0.000-   3 2.08   7 2.08  23 2.08  24 2.08  29 2.08  31 2.08  45 2.95  46 2.95
                            47 2.95  48 2.95  51 2.95  52 2.95  55 2.95  56 2.95  57 2.95  59 2.95
  40  0.500  0.500  0.500-   4 2.08   8 2.08  23 2.08  24 2.08  30 2.08  32 2.08  45 2.95  46 2.95
                            47 2.95  48 2.95  51 2.95  52 2.95  55 2.95  56 2.95  58 2.95  60 2.95
  41  0.000  0.250  0.250-   9 2.08  13 2.08  17 2.08  19 2.08  25 2.08  26 2.08  33 2.95  34 2.95
                            35 2.95  36 2.95  49 2.95  51 2.95  53 2.95  55 2.95  57 2.95  58 2.95
  42  0.000  0.250  0.750-  10 2.08  14 2.08  18 2.08  20 2.08  25 2.08  26 2.08  33 2.95  34 2.95
                            35 2.95  36 2.95  50 2.95  52 2.95  54 2.95  56 2.95  57 2.95  58 2.95
  43  0.000  0.750  0.250-  11 2.08  15 2.08  17 2.08  19 2.08  27 2.08  28 2.08  33 2.95  34 2.95
                            35 2.95  36 2.95  49 2.95  51 2.95  53 2.95  55 2.95  59 2.95  60 2.95
  44  0.000  0.750  0.750-  12 2.08  16 2.08  18 2.08  20 2.08  27 2.08  28 2.08  33 2.95  34 2.95
                            35 2.95  36 2.95  50 2.95  52 2.95  54 2.95  56 2.95  59 2.95  60 2.95
  45  0.500  0.250  0.250-   9 2.08  13 2.08  21 2.08  23 2.08  29 2.08  30 2.08  37 2.95  38 2.95
                            39 2.95  40 2.95  49 2.95  51 2.95  53 2.95  55 2.95  57 2.95  58 2.95
  46  0.500  0.250  0.750-  10 2.08  14 2.08  22 2.08  24 2.08  29 2.08  30 2.08  37 2.95  38 2.95
                            39 2.95  40 2.95  50 2.95  52 2.95  54 2.95  56 2.95  57 2.95  58 2.95
  47  0.500  0.750  0.250-  11 2.08  15 2.08  21 2.08  23 2.08  31 2.08  32 2.08  37 2.95  38 2.95
                            39 2.95  40 2.95  49 2.95  51 2.95  53 2.95  55 2.95  59 2.95  60 2.95
  48  0.500  0.750  0.750-  12 2.08  16 2.08  22 2.08  24 2.08  31 2.08  32 2.08  37 2.95  38 2.95
                            39 2.95  40 2.95  50 2.95  52 2.95  54 2.95  56 2.95  59 2.95  60 2.95
  49  0.250  0.000  0.250-   1 2.08   2 2.08   9 2.08  11 2.08  17 2.08  21 2.08  33 2.95  34 2.95
                            37 2.95  38 2.95  41 2.95  43 2.95  45 2.95  47 2.95  57 2.95  58 2.95
  50  0.250  0.000  0.750-   1 2.08   2 2.08  10 2.08  12 2.08  18 2.08  22 2.08  33 2.95  34 2.95
                            37 2.95  38 2.95  42 2.95  44 2.95  46 2.95  48 2.95  57 2.95  58 2.95
  51  0.250  0.500  0.250-   3 2.08   4 2.08   9 2.08  11 2.08  19 2.08  23 2.08  35 2.95  36 2.95
                            39 2.95  40 2.95  41 2.95  43 2.95  45 2.95  47 2.95  57 2.95  58 2.95
  52  0.250  0.500  0.750-   3 2.08   4 2.08  10 2.08  12 2.08  20 2.08  24 2.08  35 2.95  36 2.95
                            39 2.95  40 2.95  42 2.95  44 2.95  46 2.95  48 2.95  57 2.95  58 2.95
  53  0.750  0.000  0.250-   5 2.08   6 2.08  13 2.08  15 2.08  17 2.08  21 2.08  33 2.95  34 2.95
                            37 2.95  38 2.95  41 2.95  43 2.95  45 2.95  47 2.95  61 2.95  62 2.95
  54  0.750  0.000  0.750-   5 2.08   6 2.08  14 2.08  16 2.08  18 2.08  22 2.08  33 2.95  34 2.95
                            37 2.95  38 2.95  42 2.95  44 2.95  46 2.95  48 2.95  61 2.95  62 2.95
  55  0.750  0.500  0.250-   7 2.08   8 2.08  13 2.08  15 2.08  19 2.08  23 2.08  35 2.95  36 2.95
                            39 2.95  40 2.95  41 2.95  43 2.95  45 2.95  47 2.95  61 2.95  62 2.95
  56  0.750  0.500  0.750-   7 2.08   8 2.08  14 2.08  16 2.08  20 2.08  24 2.08  35 2.95  36 2.95
                            39 2.95  40 2.95  42 2.95  44 2.95  46 2.95  48 2.95  61 2.95  62 2.95
  57  0.250  0.250  0.000-   1 2.08   3 2.08   9 2.08  10 2.08  25 2.08  29 2.08  33 2.95  35 2.95
                            37 2.95  39 2.95  41 2.95  42 2.95  45 2.95  46 2.95  49 2.95  50 2.95
  58  0.250  0.250  0.500-   2 2.08   4 2.08   9 2.08  10 2.08  26 2.08  30 2.08  34 2.95  36 2.95
                            38 2.95  40 2.95  41 2.95  42 2.95  45 2.95  46 2.95  49 2.95  50 2.95
  59  0.250  0.750  0.000-   1 2.08   3 2.08  11 2.08  12 2.08  27 2.08  31 2.08  33 2.95  35 2.95
                            37 2.95  39 2.95  43 2.95  44 2.95  47 2.95  48 2.95  49 2.95  50 2.95
  60  0.250  0.750  0.500-   2 2.08   4 2.08  11 2.08  12 2.08  28 2.08  32 2.08  34 2.95  36 2.95
                            38 2.95  40 2.95  43 2.95  44 2.95  47 2.95  48 2.95  49 2.95  50 2.95
  61  0.750  0.250  0.000-   5 2.08   7 2.08  13 2.08  14 2.08  25 2.08  29 2.08  33 2.95  35 2.95
                            37 2.95  39 2.95  41 2.95  42 2.95  45 2.95  46 2.95  53 2.95  54 2.95
  62  0.750  0.250  0.500-   6 2.08   8 2.08  13 2.08  14 2.08  26 2.08  30 2.08  34 2.95  36 2.95
                            38 2.95  40 2.95  41 2.95  42 2.95  45 2.95  46 2.95  53 2.95  54 2.95
  63  0.750  0.750  0.000-   5 2.08   7 2.08  15 2.08  16 2.08  27 2.08  31 2.08  33 2.95  35 2.95
                            37 2.95  39 2.95  43 2.95  44 2.95  47 2.95  48 2.95  53 2.95  54 2.95
  64  0.750  0.750  0.500-   6 2.08   8 2.08  15 2.08  16 2.08  28 2.08  32 2.08  34 2.95  36 2.95
                            38 2.95  40 2.95  43 2.95  44 2.95  47 2.95  48 2.95  53 2.95  54 2.95

  LATTYP: Found a simple cubic cell.
 ALAT       =     8.3320336919

  Lattice vectors:

 A1 = (   8.3320336919,   0.0000000000,   0.0000000000)
 A2 = (   0.0000000000,   8.3320336919,   0.0000000000)
 A3 = (   0.0000000000,   0.0000000000,   8.3320336919)

Analysis of symmetry for initial positions (statically):
 Subroutine PRICEL returns following result:

  LATTYP: Found a face centered cubic cell.
 ALAT       =     4.1660168460

[...]

  32 primitive cells build up your supercell.

 Routine SETGRP: Setting up the symmetry group for a
 simple cubic supercell.

 Subroutine GETGRP returns: Found 48 space group operations
 (whereof 48 operations were pure point group operations)
 out of a pool of 48 trial point group operations.

The static configuration has the point symmetry O_h .

Analysis of symmetry for dynamics (positions and initial velocities):
 Subroutine PRICEL returns following result:

  LATTYP: Found a face centered cubic cell.
 ALAT       =     4.1660168460

  Lattice vectors:

 A1 = (   2.0830084230,   2.0830084230,  -0.0000000000)
 A2 = (   2.0830084230,   0.0000000000,  -2.0830084230)
 A3 = (   0.0000000000,   2.0830084230,  -2.0830084230)

  32 primitive cells build up your supercell.

 Routine SETGRP: Setting up the symmetry group for a
 simple cubic supercell.

 Subroutine GETGRP returns: Found 48 space group operations
[...]
   0.153E-12 0.331E-12 0.152E-11   0.446E-13 -.200E-13 -.692E-14   -.244E-22 0.331E-23 0.120E-22   -.354E-13 0.171E-13 0.177E-13
   0.507E-12 -.834E-14 0.354E-11   0.348E-13 -.151E-13 -.140E-13   -.910E-23 -.149E-22 -.132E-22   -.829E-13 0.876E-13 -.197E-12
   0.508E-12 -.742E-14 -.146E-11   0.312E-13 -.711E-14 -.648E-14   0.248E-23 0.120E-22 -.708E-23   0.420E-13 0.186E-13 0.176E-12
   0.506E-12 0.589E-12 -.247E-11   0.179E-13 -.138E-13 -.140E-13   0.827E-24 0.600E-23 -.178E-22   -.222E-13 -.260E-13 -.993E-13
   0.508E-12 -.460E-11 -.113E-11   0.902E-14 -.142E-13 -.136E-13   0.744E-23 -.290E-23 -.843E-23   0.214E-13 0.357E-13 0.487E-13
   0.150E-12 -.904E-12 -.132E-11   0.974E-14 -.415E-13 -.144E-13   -.246E-22 -.153E-22 -.331E-23   0.389E-13 -.118E-12 -.414E-12
   0.154E-12 0.130E-11 -.729E-12   0.996E-14 -.488E-13 -.144E-13   -.662E-23 -.165E-22 -.703E-23   -.178E-14 -.127E-12 0.328E-12
   0.151E-12 0.178E-11 -.124E-11   0.273E-13 -.420E-13 -.755E-14   -.496E-23 0.261E-22 0.316E-22   -.956E-15 0.113E-12 -.353E-12
   0.155E-12 -.520E-12 -.917E-12   0.419E-13 -.409E-13 -.147E-13   0.993E-23 -.662E-23 -.993E-23   -.680E-13 0.127E-12 0.288E-12
   0.509E-12 -.477E-12 -.103E-12   0.539E-13 -.426E-13 -.711E-14   0.215E-22 -.145E-23 0.177E-22   -.624E-13 -.641E-13 -.477E-12
   0.505E-12 0.353E-12 0.472E-12   0.468E-13 -.431E-13 -.711E-14   0.199E-22 -.248E-23 0.331E-23   -.213E-13 -.176E-12 0.405E-12
   0.509E-12 0.300E-11 -.369E-11   0.215E-13 -.435E-13 -.711E-14   -.290E-23 0.168E-22 0.331E-23   -.163E-13 0.624E-13 -.407E-12
   0.505E-12 0.196E-11 0.543E-11   0.286E-13 -.355E-13 -.711E-14   0.827E-24 -.414E-24 -.195E-22   0.483E-13 0.172E-12 0.350E-12
   -.135E-13 -.102E-13 0.139E-12   -.826E-13 -.115E-13 -.888E-14   -.662E-23 -.331E-23 0.186E-22   0.552E-13 0.128E-13 -.382E-12
   -.119E-13 -.721E-14 0.507E-12   -.719E-13 0.444E-14 -.799E-14   -.310E-22 -.910E-23 -.993E-23   -.685E-13 0.266E-13 0.354E-12
   -.137E-13 0.331E-12 0.141E-12   -.977E-13 -.266E-14 -.888E-14   -.108E-22 -.414E-24 0.117E-22   0.655E-14 0.262E-13 -.329E-12
   -.126E-13 0.369E-12 0.617E-12   -.103E-12 -.266E-14 -.799E-14   -.165E-23 -.579E-23 -.232E-22   -.141E-13 0.120E-13 0.272E-12
   0.332E-12 -.106E-13 0.517E-11   -.897E-13 0.888E-15 -.178E-14   0.170E-22 -.116E-22 -.822E-23   -.338E-13 0.531E-13 -.544E-12
   0.330E-12 -.731E-14 0.458E-11   -.897E-13 -.115E-13 -.799E-14   0.000E+00 -.827E-24 0.149E-22   0.905E-13 0.924E-13 0.447E-12
   0.333E-12 0.238E-11 0.631E-12   -.613E-13 -.977E-14 -.178E-14   -.203E-22 -.108E-22 0.157E-22   0.157E-13 -.131E-13 -.403E-12
   0.332E-12 -.261E-11 0.426E-11   -.631E-13 -.115E-13 -.888E-15   0.662E-23 -.120E-23 -.331E-23   0.377E-13 -.546E-13 0.290E-12
   -.138E-13 0.156E-12 -.211E-13   -.671E-13 -.251E-13 -.867E-14   -.161E-22 0.137E-22 -.620E-24   -.352E-13 -.146E-12 -.134E-12
   -.126E-13 0.156E-12 0.330E-12   -.671E-13 -.322E-13 -.114E-14   -.132E-22 -.147E-22 -.372E-23   0.358E-13 -.783E-13 0.111E-12
   -.132E-13 0.503E-12 -.181E-13   -.995E-13 -.460E-13 -.956E-14   -.859E-23 0.827E-24 0.910E-23   -.359E-13 0.144E-12 -.116E-12
   -.119E-13 0.612E-12 0.367E-12   -.711E-13 -.371E-13 -.825E-14   -.219E-22 0.124E-23 0.174E-22   0.229E-13 0.783E-13 0.105E-12
   0.333E-12 0.296E-11 0.233E-11   -.748E-13 -.393E-13 -.867E-14   0.207E-24 -.414E-23 -.372E-23   0.606E-13 -.219E-12 -.117E-12
   0.332E-12 -.164E-11 0.270E-11   -.110E-12 -.535E-13 -.114E-14   0.240E-22 -.165E-23 0.796E-23   -.110E-13 -.585E-13 0.498E-13
   0.332E-12 0.318E-11 0.201E-11   -.857E-13 -.406E-13 -.867E-14   -.207E-23 0.331E-23 0.331E-23   0.523E-13 0.191E-12 -.648E-13
   0.331E-12 0.273E-11 -.254E-11   -.853E-13 -.389E-13 -.825E-14   0.232E-22 0.215E-22 -.265E-22   -.682E-14 0.471E-13 0.185E-13
   -.404E-15 0.775E-14 0.315E-14   0.305E-13 0.316E-13 0.100E-13   -.207E-23 0.641E-23 0.517E-23   -.637E-14 0.951E-14 -.316E-13
   0.550E-15 0.678E-16 -.173E-14   0.298E-13 0.315E-13 0.106E-13   0.269E-23 0.682E-23 -.788E-24   0.648E-14 -.192E-14 0.314E-13
   -.118E-14 -.660E-14 -.938E-15   0.283E-13 0.319E-13 0.107E-13   0.434E-23 0.414E-24 0.103E-24   -.608E-14 -.768E-14 -.214E-13
   -.735E-15 -.589E-15 -.158E-14   0.293E-13 0.311E-13 0.108E-13   -.341E-23 0.372E-23 0.264E-23   0.498E-14 0.353E-14 0.214E-13
   -.933E-17 0.271E-12 0.383E-12   0.361E-13 0.250E-13 0.944E-14   0.258E-23 -.465E-23 -.372E-23   0.762E-14 0.207E-13 -.202E-13
   -.985E-15 0.223E-13 -.488E-12   0.360E-13 0.329E-13 0.105E-13   0.109E-23 -.807E-23 -.145E-23   -.515E-14 0.892E-14 0.218E-13
   -.311E-15 0.673E-12 -.459E-12   0.241E-13 0.331E-13 0.978E-14   -.641E-23 -.414E-23 0.364E-23   0.724E-14 -.175E-13 -.999E-14
   -.863E-16 0.891E-12 -.151E-12   0.275E-13 0.258E-13 0.992E-14   0.414E-24 0.676E-23 -.114E-23   -.383E-14 -.666E-14 0.110E-13
   -.153E-14 -.283E-16 -.340E-14   0.273E-13 0.256E-13 0.822E-14   -.186E-23 -.455E-23 -.103E-23   0.791E-14 -.254E-13 -.932E-13
   0.294E-15 -.664E-14 -.656E-14   0.286E-13 0.249E-13 0.822E-14   0.579E-23 -.124E-23 0.173E-23   -.754E-14 -.354E-13 0.922E-13
   -.111E-14 -.158E-13 -.656E-14   0.315E-13 0.318E-13 0.888E-14   0.196E-23 0.682E-23 0.255E-23   0.560E-14 0.237E-13 -.819E-13
   -.203E-14 -.177E-13 -.136E-13   0.333E-13 0.317E-13 0.888E-14   0.269E-23 0.207E-23 0.258E-24   -.669E-14 0.338E-13 0.808E-13
   0.777E-15 -.162E-12 -.484E-12   0.366E-13 0.340E-13 0.766E-14   0.321E-23 -.765E-23 0.155E-23   -.641E-14 -.293E-13 -.109E-12
   -.136E-14 0.579E-13 0.119E-11   0.353E-13 0.257E-13 0.766E-14   0.310E-23 -.145E-23 0.211E-23   0.907E-14 -.398E-13 0.108E-12
   0.523E-15 0.161E-11 -.298E-12   0.262E-13 0.322E-13 0.799E-14   0.620E-24 0.765E-23 0.331E-23   -.450E-14 0.268E-13 -.980E-13
   0.136E-14 0.623E-13 -.538E-13   0.262E-13 0.330E-13 0.799E-14   0.662E-23 0.615E-23 -.331E-23   0.786E-14 0.374E-13 0.964E-13
   -.294E-14 0.542E-14 -.458E-12   0.286E-13 0.191E-13 0.699E-14   -.496E-23 0.145E-23 0.000E+00   0.367E-14 0.723E-14 -.999E-13
   -.420E-14 -.151E-13 -.662E-12   0.258E-13 0.191E-13 0.788E-14   0.538E-23 0.600E-23 0.165E-23   -.682E-14 0.962E-14 0.980E-13
   -.765E-14 -.261E-13 -.958E-12   0.192E-13 0.222E-13 0.744E-14   -.310E-23 -.186E-23 0.290E-23   0.285E-16 -.522E-14 -.804E-13
   -.127E-14 0.947E-13 -.204E-12   0.147E-13 0.204E-13 0.833E-14   0.186E-23 0.372E-23 -.331E-23   -.109E-13 -.782E-14 0.798E-13
   -.554E-14 -.710E-13 0.981E-12   0.209E-13 0.195E-13 0.666E-14   0.165E-23 0.331E-23 0.452E-25   -.535E-14 0.530E-14 -.112E-12
   -.505E-14 -.158E-12 0.231E-12   0.227E-13 0.213E-13 0.755E-14   0.388E-23 0.414E-24 0.517E-25   0.513E-14 0.110E-13 0.111E-12
   -.439E-14 -.148E-11 -.127E-12   0.213E-13 0.235E-13 0.755E-14   0.972E-23 -.155E-23 0.207E-23   -.176E-14 -.293E-14 -.916E-13
   -.806E-14 -.180E-11 0.128E-11   0.214E-13 0.218E-13 0.844E-14   -.517E-24 -.258E-23 0.124E-23   0.915E-14 -.861E-14 0.907E-13
   -.415E-14 0.147E-12 -.167E-12   0.254E-13 0.200E-13 0.502E-14   -.264E-23 0.982E-24 -.186E-23   0.992E-14 -.423E-13 -.158E-13
   -.387E-14 -.315E-12 -.135E-12   0.259E-13 0.182E-13 0.543E-14   -.254E-23 0.527E-23 0.352E-23   -.590E-14 -.232E-13 0.167E-13
   -.411E-14 -.202E-12 -.115E-12   0.159E-13 0.205E-13 0.501E-14   0.455E-23 -.290E-23 0.109E-23   -.396E-15 0.399E-13 -.135E-13
   -.556E-14 0.354E-12 -.111E-13   0.159E-13 0.204E-13 0.587E-14   -.486E-23 0.527E-23 -.558E-23   -.162E-13 0.213E-13 0.139E-13
   -.586E-14 0.418E-12 0.103E-11   0.220E-13 0.222E-13 0.446E-14   0.401E-24 0.600E-23 -.724E-23   -.119E-13 -.428E-13 -.315E-13
   -.606E-14 -.552E-12 -.212E-12   0.215E-13 0.204E-13 0.532E-14   0.000E+00 -.310E-23 0.207E-23   0.394E-14 -.219E-13 0.318E-13
   -.767E-14 -.137E-11 0.145E-11   0.235E-13 0.209E-13 0.490E-14   0.341E-23 0.414E-23 -.181E-23   -.108E-14 0.401E-13 -.259E-13
   -.607E-14 0.125E-12 -.541E-12   0.306E-13 0.209E-13 0.532E-14   0.145E-23 0.414E-24 0.651E-23   0.148E-13 0.197E-13 0.261E-13
   0.774E-11 0.108E-10 0.176E-10   -.111E-13 0.833E-14 -.210E-13   -.352E-22 -.711E-23 0.170E-22   0.152E-13 0.309E-12 -.890E-12

 POSITION                                       TOTAL-FORCE (eV/Angst)
      2.08301      0.00000      0.00000        -0.000000     -0.000000      0.000000
      2.08301      0.00000      4.16602         0.000000      0.000000      0.000000
      2.08301      4.16602      0.00000         0.000000      0.000000      0.000000
      2.08301      4.16602      4.16602        -0.000000      0.000000     -0.000000
      6.24903      0.00000      0.00000         0.000000      0.000000      0.000000
      6.24903      0.00000      4.16602        -0.000000      0.000000      0.000000
      6.24903      4.16602      0.00000         0.000000     -0.000000     -0.000000
      6.24903      4.16602      4.16602        -0.000000      0.000000      0.000000
      2.08301      2.08301      2.08301         0.000000     -0.000000      0.000000
      2.08301      2.08301      6.24903        -0.000000     -0.000000     -0.000000
      2.08301      6.24903      2.08301        -0.000000      0.000000      0.000000
      2.08301      6.24903      6.24903        -0.000000      0.000000     -0.000000
      6.24903      2.08301      2.08301        -0.000000      0.000000      0.000000
      6.24903      2.08301      6.24903        -0.000000      0.000000     -0.000000
      6.24903      6.24903      2.08301         0.000000     -0.000000      0.000000
      6.24903      6.24903      6.24903         0.000000     -0.000000     -0.000000
      0.00000      0.00000      2.08301         0.000000      0.000000     -0.000000
      0.00000      0.00000      6.24903         0.000000      0.000000      0.000000
      0.00000      4.16602      2.08301         0.000000      0.000000      0.000000
      0.00000      4.16602      6.24903        -0.000000      0.000000     -0.000000
      4.16602      0.00000      2.08301         0.000000      0.000000     -0.000000
      4.16602      0.00000      6.24903         0.000000     -0.000000      0.000000
      4.16602      4.16602      2.08301         0.000000     -0.000000      0.000000
      4.16602      4.16602      6.24903         0.000000     -0.000000     -0.000000
      0.00000      2.08301      0.00000        -0.000000      0.000000      0.000000
      0.00000      2.08301      4.16602         0.000000     -0.000000     -0.000000
      0.00000      6.24903      0.00000        -0.000000     -0.000000     -0.000000
      0.00000      6.24903      4.16602        -0.000000     -0.000000      0.000000
      4.16602      2.08301      0.00000         0.000000     -0.000000      0.000000
      4.16602      2.08301      4.16602         0.000000     -0.000000      0.000000
      4.16602      6.24903      0.00000        -0.000000     -0.000000      0.000000
      4.16602      6.24903      4.16602        -0.000000     -0.000000      0.000000
      0.00000      0.00000      0.00000         0.000000      0.000000     -0.000000
      0.00000      0.00000      4.16602         0.000000      0.000000     -0.000000
      0.00000      4.16602      0.00000         0.000000      0.000000     -0.000000
      0.00000      4.16602      4.16602         0.000000     -0.000000     -0.000000
      4.16602      0.00000      0.00000        -0.000000     -0.000000      0.000000
      4.16602      0.00000      4.16602         0.000000     -0.000000     -0.000000
      4.16602      4.16602      0.00000         0.000000      0.000000     -0.000000
      4.16602      4.16602      4.16602        -0.000000     -0.000000      0.000000
      0.00000      2.08301      2.08301        -0.000000     -0.000000     -0.000000
      0.00000      2.08301      6.24903        -0.000000     -0.000000      0.000000
      0.00000      6.24903      2.08301         0.000000      0.000000     -0.000000
      0.00000      6.24903      6.24903         0.000000     -0.000000      0.000000
      4.16602      2.08301      2.08301         0.000000      0.000000     -0.000000
      4.16602      2.08301      6.24903         0.000000      0.000000      0.000000
      4.16602      6.24903      2.08301         0.000000      0.000000      0.000000
      4.16602      6.24903      6.24903        -0.000000     -0.000000      0.000000
      2.08301      0.00000      2.08301         0.000000      0.000000     -0.000000
      2.08301      0.00000      6.24903         0.000000     -0.000000      0.000000
      2.08301      4.16602      2.08301        -0.000000      0.000000     -0.000000
      2.08301      4.16602      6.24903         0.000000     -0.000000      0.000000
      6.24903      0.00000      2.08301        -0.000000      0.000000     -0.000000
      6.24903      0.00000      6.24903         0.000000     -0.000000      0.000000
      6.24903      4.16602      2.08301         0.000000     -0.000000     -0.000000
      6.24903      4.16602      6.24903         0.000000     -0.000000      0.000000
      2.08301      2.08301      0.00000        -0.000000     -0.000000     -0.000000
      2.08301      2.08301      4.16602        -0.000000     -0.000000     -0.000000
      2.08301      6.24903      0.00000         0.000000     -0.000000     -0.000000
      2.08301      6.24903      4.16602         0.000000      0.000000      0.000000
      6.24903      2.08301      0.00000        -0.000000     -0.000000      0.000000
      6.24903      2.08301      4.16602        -0.000000      0.000000      0.000000
      6.24903      6.24903      0.00000         0.000000     -0.000000     -0.000000
      6.24903      6.24903      4.16602        -0.000000      0.000000     -0.000000
    total drift:                                0.000000      0.000000      0.000000

  FREE ENERGIE OF THE ION-ELECTRON SYSTEM (eV)
  free  energy   TOTEN  =      -400.72376264 eV

  energy  without entropy=     -400.72376264  energy(sigma->0) =     -400.72376264

 reached required accuracy - stopping structural energy minimisation

 total charge

# of ion       s       p       d       tot
    1        1.563   3.574   0.000   5.137
    2        1.563   3.574   0.000   5.137
    3        1.563   3.574   0.000   5.137
    4        1.563   3.574   0.000   5.137
    5        1.563   3.574   0.000   5.137
    6        1.563   3.574   0.000   5.137
    7        1.563   3.574   0.000   5.137
    8        1.563   3.574   0.000   5.137
    9        1.563   3.574   0.000   5.137
   10        1.563   3.574   0.000   5.137
   11        1.563   3.574   0.000   5.137
   12        1.563   3.574   0.000   5.137
   13        1.563   3.574   0.000   5.137
   14        1.563   3.574   0.000   5.137
   15        1.563   3.574   0.000   5.137
   16        1.563   3.574   0.000   5.137
   17        1.563   3.574   0.000   5.137
   18        1.563   3.574   0.000   5.137
   19        1.563   3.574   0.000   5.137
   20        1.563   3.574   0.000   5.137
   21        1.563   3.574   0.000   5.137
   22        1.563   3.574   0.000   5.137
   23        1.563   3.574   0.000   5.137
   24        1.563   3.574   0.000   5.137
   25        1.563   3.574   0.000   5.137
   26        1.563   3.574   0.000   5.137
   27        1.563   3.574   0.000   5.137
   28        1.563   3.574   0.000   5.137
   29        1.563   3.574   0.000   5.137
   30        1.563   3.574   0.000   5.137
   31        1.563   3.574   0.000   5.137
   32        1.563   3.574   0.000   5.137
   33        0.155   0.192   0.087   0.433
   34        0.155   0.192   0.087   0.433
   35        0.155   0.192   0.087   0.433
   36        0.155   0.192   0.087   0.433
   37        0.155   0.192   0.087   0.433
   38        0.155   0.192   0.087   0.433
   39        0.155   0.192   0.087   0.433
   40        0.155   0.192   0.087   0.433
   41        0.155   0.192   0.087   0.433
   42        0.155   0.192   0.087   0.433
   43        0.155   0.192   0.087   0.433
   44        0.155   0.192   0.087   0.433
   45        0.155   0.192   0.087   0.433
   46        0.155   0.192   0.087   0.433
   47        0.155   0.192   0.087   0.433
   48        0.155   0.192   0.087   0.433
   49        0.155   0.192   0.087   0.433
   50        0.155   0.192   0.087   0.433
   51        0.155   0.192   0.087   0.433
   52        0.155   0.192   0.087   0.433
   53        0.155   0.192   0.087   0.433
   54        0.155   0.192   0.087   0.433
   55        0.155   0.192   0.087   0.433
   56        0.155   0.192   0.087   0.433
   57        0.155   0.192   0.087   0.433
   58        0.155   0.192   0.087   0.433
   59        0.155   0.192   0.087   0.433
   60        0.155   0.192   0.087   0.433
   61        0.155   0.192   0.087   0.433
   62        0.155   0.192   0.087   0.433
   63        0.155   0.192   0.087   0.433
   64        0.155   0.192   0.087   0.433
tot         54.973 120.513   2.777 178.264