 vasp.5.3.3 18Dez12 (build Mar 11 2013 19:18:40) complex

 executed on             LinuxIFC date 2013.11.18  07:16:54

 INCAR:
 POTCAR:    PAW_PBE Li 17Jan2003
 POTCAR:    PAW_PBE Ti 08Apr2002
 POTCAR:    PAW_PBE O 08Apr2002

 POTCAR:    PAW_PBE Li 17Jan2003
   VRHFIN =Li: s1p0

   TITEL  = PAW_PBE Li 17Jan2003
   POMASS =    7.010; ZVAL   =    1.000    mass and valenz
   ENMAX  =  140.000; ENMIN  =  100.000 eV

 POTCAR:    PAW_PBE Ti 08Apr2002
   VRHFIN =Ti: d3 s1

   TITEL  = PAW_PBE Ti 08Apr2002
   POMASS =   47.880; ZVAL   =    4.000    mass and valenz
   ENMAX  =  178.330; ENMIN  =  133.747 eV

 POTCAR:    PAW_PBE O 08Apr2002
   VRHFIN =O: s2p4

   TITEL  = PAW_PBE O 08Apr2002
   POMASS =   16.000; ZVAL   =    6.000    mass and valenz
   ENMAX  =  400.000; ENMIN  =  300.000 eV

  PAW_PBE Li 17Jan2003                  :
  PAW_PBE Ti 08Apr2002                  :
  PAW_PBE O 08Apr2002                   :

 POSCAR: Li2 O3 Ti1-2x2x1
  positions in direct lattice
  velocities in cartesian coordinates
 exchange correlation table for  LEXCH =        8
   RHO(1)=    0.500       N(1)  =     2000
   RHO(2)=  100.500       N(2)  =     4000

 ion  position               nearest neighbor table
   1  0.120  0.041  0.003- 145 2.08 117 2.09 163 2.13 166 2.17  97 2.18 151 2.28   8 2.79  47 2.91
                            42 2.91  49 2.92  75 2.94  89 2.95  85 2.96  55 2.99  77 2.99   7 3.00
   2  0.619  0.043  0.002- 146 2.09 118 2.10 152 2.13 165 2.15  98 2.16 164 2.17   7 2.83  41 2.87
                            50 2.91  56 2.92   8 2.93  90 2.94  76 2.96  86 2.97  22 2.99  42 3.01
   3  0.121  0.539  0.000- 147 2.08 119 2.12 161 2.14 168 2.15 149 2.19  99 2.22   6 2.85  45 2.91
                            44 2.91  23 2.93  53 2.93  51 2.94  73 2.94  87 2.96  79 2.98   5 2.98
   4  0.621  0.539  1.000- 120 2.06 148 2.08 162 2.13 167 2.16 150 2.20 100 2.24   5 2.84  46 2.90
                            43 2.92  54 2.93  74 2.94  88 2.94  52 2.94  44 2.97  92 2.97  80 2.98
   5  0.379  0.460  0.001- 113 2.08 149 2.10 162 2.14 167 2.15 147 2.21 101 2.22   4 2.84  43 2.90
                            46 2.92  52 2.93  54 2.94  82 2.94  79 2.96  73 2.97   3 2.98  93 2.98
   6  0.879  0.459  0.001- 114 2.07 150 2.10 161 2.13 168 2.17 102 2.21 148 2.21   3 2.85  44 2.89
                            45 2.91  51 2.93  81 2.94  53 2.94  80 2.96  18 2.97  74 2.98  46 2.99
   7  0.380  0.962  0.002- 115 2.09 151 2.11 164 2.13 165 2.14 145 2.17 103 2.28   2 2.83  47 2.87
                            41 2.90  50 2.90  56 2.91  48 2.93  84 2.95  77 2.96  75 2.98   1 3.00
   8  0.879  0.969  0.013- 146 2.03 116 2.09 163 2.10 166 2.14 152 2.16 104 2.59  49 2.78   1 2.79
                            42 2.81  76 2.89  83 2.93   2 2.93  96 2.96  78 3.06  55 3.06  48 3.13
   9  0.381  0.041  0.498- 153 2.09 125 2.10 174 2.14 171 2.15 105 2.19 159 2.21  34 2.86  16 2.86
                            50 2.90  56 2.91  75 2.93  86 2.95  15 2.96  89 2.97  39 2.98  29 3.00
  10  0.883  0.045  0.494- 126 2.08 154 2.09 106 2.11 173 2.14 172 2.15 160 2.38  15 2.83  40 2.84
                            49 2.85  33 2.86  90 2.92  76 2.94  30 2.95  85 2.98  78 3.00  55 3.00
  11  0.379  0.539  0.500- 155 2.08 127 2.11 169 2.14 176 2.14 157 2.19 107 2.23  14 2.83  37 2.90
                            54 2.93  52 2.93  36 2.94  88 2.94  73 2.95  35 2.96  91 2.97  13 2.99
  12  0.878  0.537  0.500- 156 2.08 170 2.12 175 2.14 128 2.14 158 2.17 108 2.25  13 2.83  32 2.84
                            38 2.88  53 2.92  74 2.93  51 2.94  35 2.94  87 2.96  14 2.97  80 2.98
  13  0.120  0.459  0.498- 121 2.07 157 2.09 170 2.13 175 2.18 155 2.21 109 2.21  12 2.83  35 2.88
                            38 2.92  51 2.92  81 2.93  53 2.95  79 2.96  25 2.98  73 2.98  93 2.98
  14  0.620  0.459  0.498- 122 2.08 158 2.10 169 2.13 176 2.16 156 2.21 110 2.21  11 2.83  52 2.91
                            37 2.91  36 2.93  82 2.93  80 2.94  54 2.95  12 2.97  74 2.97  26 2.99
  15  0.122  0.964  0.493- 123 2.08 159 2.11 153 2.11 172 2.12 173 2.16 111 2.38  40 2.81  10 2.83
                            49 2.85  33 2.88  75 2.91   9 2.96  83 2.97  77 2.99  39 2.99  95 3.00
  16  0.622  0.958  0.501- 124 2.07 160 2.08 171 2.15 174 2.17 112 2.20 154 2.23   9 2.86  84 2.95
                            50 2.95  34 2.96  76 2.97  78 2.97  39 2.97  56 2.98  40 2.98  96 2.98
  17  0.370  0.291  1.000- 130 2.09 101 2.09 181 2.14 177 2.15 113 2.20 133 2.22  21 2.83  45 2.91
                            41 2.92  61 2.92  57 2.93  66 2.95  93 2.95  82 2.97  22 2.98   5 2.99
  18  0.870  0.291  0.001- 129 2.08 102 2.09 178 2.15 182 2.15 114 2.20 134 2.22  22 2.84  42 2.89
                            46 2.91  58 2.92  62 2.93  94 2.95  65 2.95  81 2.96   6 2.97  21 2.98
  19  0.375  0.789  0.001- 132 2.05 183 2.06 103 2.13 179 2.15 135 2.20 115 2.23  47 2.86  23 2.88
                            48 2.90  68 2.92  43 2.93  24 2.95  59 2.96  63 2.96  84 2.97  72 2.99
  20  0.871  0.788  0.998- 131 2.09 104 2.11 184 2.12 180 2.14 136 2.16 116 2.26  64 2.84  24 2.84
                            67 2.94  44 2.94  48 2.96  96 2.96  60 2.98  71 2.98  83 2.99  23 3.05
  21  0.129  0.212  0.003-  97 2.09 134 2.10 177 2.13 181 2.15 129 2.16 117 2.25  17 2.83  45 2.89
                            57 2.89  89 2.94  41 2.95  65 2.96  69 2.96  61 2.97  18 2.98  42 2.98
  22  0.629  0.211  0.001-  98 2.09 133 2.09 178 2.14 182 2.14 130 2.18 118 2.25  18 2.84  46 2.89
                            58 2.91  42 2.93  90 2.94  62 2.94  70 2.96  66 2.97  41 2.98  17 2.98
  23  0.134  0.705  0.006-  99 2.01 179 2.08 119 2.17 183 2.18 136 2.20 131 2.24  71 2.83  43 2.86
                            91 2.87  19 2.88  59 2.92   3 2.93  67 2.95  63 3.01  44 3.02  87 3.02
  24  0.629  0.709  0.004- 100 2.06 135 2.10 180 2.13 184 2.18 132 2.20 120 2.24  64 2.78  20 2.84
                            48 2.88  92 2.92  60 2.94  44 2.94  19 2.95  68 2.95  72 2.96  43 2.99
  25  0.129  0.291  0.499- 138 2.09 109 2.09 189 2.14 185 2.15 121 2.20 141 2.23  29 2.84  37 2.90
                            33 2.91  61 2.92  57 2.93  65 2.94  93 2.95  81 2.97  13 2.98  30 2.98
  26  0.629  0.290  0.499- 137 2.08 110 2.09 190 2.15 186 2.15 122 2.21 142 2.21  30 2.84  38 2.91
                            34 2.92  62 2.92  58 2.93  66 2.94  94 2.95  82 2.97  29 2.98  70 2.99
  27  0.125  0.789  0.499- 140 2.06 111 2.08 187 2.15 143 2.18 191 2.20 123 2.25  31 2.86  39 2.92
                            67 2.93  59 2.95  35 2.96  40 2.96  71 2.98  83 2.98  63 2.99  95 2.99
  28  0.609  0.787  0.490- 139 1.91 112 2.02 188 2.12 144 2.15 124 2.26  68 2.80  31 2.85  39 2.87
                            84 2.88  36 2.88  72 2.94  60 2.95  16 3.02  32 3.14  64 3.25  40 3.28
  29  0.370  0.211  0.497- 105 2.09 142 2.09 185 2.13 189 2.16 137 2.18 125 2.25  25 2.84  37 2.90
                            57 2.90  33 2.91  89 2.94  61 2.95  70 2.95  34 2.97  66 2.97  26 2.98
  30  0.871  0.211  0.498- 106 2.09 141 2.10 186 2.14 190 2.15 138 2.17 126 2.22  26 2.84  38 2.88
                            58 2.90  10 2.95  90 2.95  65 2.96  69 2.96  62 2.96  34 2.97  25 2.98
  31  0.367  0.708  0.499- 107 2.07 187 2.11 191 2.15 144 2.16 127 2.18 139 2.23  28 2.85  27 2.86
                            63 2.88  35 2.88  91 2.91  59 2.92  39 2.92  72 2.95  11 2.99  68 2.99
  32  0.875  0.698  0.491- 108 1.90 143 2.03 188 2.12 128 2.14 140 2.28  92 2.81  12 2.84  36 2.87
                            35 2.88  67 2.89  87 2.94  60 2.96  27 3.00  28 3.14  64 3.24  40 3.30
  33  0.126  0.126  0.500- 185 2.04 173 2.07 125 2.18 141 2.19 106 2.20 153 2.21  10 2.86  15 2.88
                            29 2.91  25 2.91  61 2.94  49 2.94  65 2.95  77 2.95  89 2.97  85 2.97
  34  0.620  0.126  0.496- 186 2.04 174 2.08 105 2.13 154 2.20 142 2.20 126 2.23   9 2.86  50 2.90
                            66 2.91  78 2.91  26 2.92  90 2.96  16 2.96  29 2.97  30 2.97  86 2.97
  35  0.126  0.622  0.495- 175 2.04 187 2.05 155 2.12 108 2.18 127 2.20 143 2.33  32 2.88  31 2.88
                            13 2.88  51 2.90  91 2.90  12 2.94  79 2.95  11 2.96  67 2.96  27 2.96
  36  0.625  0.625  0.500- 188 2.05 176 2.06 128 2.17 144 2.17 107 2.19 156 2.20  32 2.87  28 2.88
                            14 2.93  11 2.94  52 2.95  80 2.96  88 2.96  68 2.96  92 2.96  12 3.01
  37  0.374  0.375  0.498- 169 2.05 189 2.06 121 2.18 137 2.19 110 2.20 157 2.22  29 2.90  11 2.90
                            25 2.90  14 2.91  57 2.93  73 2.94  70 2.95  54 2.95  82 2.95  93 2.97
  38  0.875  0.374  0.499- 170 2.05 190 2.06 138 2.18 122 2.19 109 2.19 158 2.21  12 2.88  30 2.88
                            26 2.91  13 2.92  58 2.93  74 2.95  81 2.95  69 2.95  53 2.95  94 2.97
  39  0.370  0.873  0.492- 171 2.04 191 2.06 123 2.12 139 2.14 159 2.23 112 2.36  59 2.85  28 2.87
                            75 2.90  95 2.90  84 2.92  27 2.92  31 2.92  16 2.97   9 2.98  15 2.99
  40  0.884  0.884  0.494- 172 1.90 111 2.18 160 2.19 124 2.22 140 2.23  15 2.81  10 2.84  76 2.86
                            55 2.86  83 2.88  27 2.96  16 2.98  60 3.00  28 3.28  32 3.30
  41  0.377  0.126  0.002- 177 2.04 165 2.06  98 2.16 133 2.19 145 2.20 117 2.21   2 2.87   7 2.90
                            17 2.92  66 2.93  50 2.94  89 2.95  77 2.95  21 2.95  86 2.96  61 2.98
  42  0.875  0.127  0.999- 178 2.04 166 2.07 134 2.16  97 2.19 118 2.20 146 2.23   8 2.81  18 2.89
                             1 2.91  22 2.93  65 2.95  85 2.95  62 2.95  90 2.96  78 2.96  49 2.97
  43  0.376  0.623  0.002- 167 2.05 179 2.05 147 2.16 100 2.18 119 2.23 135 2.24  23 2.86   5 2.90
                             4 2.92  52 2.92  19 2.93  63 2.94  68 2.94  91 2.95  88 2.97  79 2.98
  44  0.875  0.622  0.005- 168 2.05 180 2.06 148 2.13  99 2.17 120 2.22 136 2.27  64 2.80   6 2.89
                            51 2.89   3 2.91  92 2.92  67 2.94  20 2.94  24 2.94   4 2.97  87 2.98
  45  0.125  0.375  0.001- 161 2.05 181 2.05 113 2.18 129 2.19 102 2.20 149 2.21  21 2.89   3 2.91
                             6 2.91  17 2.91  73 2.94  57 2.94  53 2.95  69 2.95  81 2.95  93 2.97
  46  0.625  0.375  0.000- 162 2.05 182 2.06 114 2.19 130 2.19 101 2.20 150 2.20  22 2.89   4 2.90
                            18 2.91   5 2.92  58 2.94  74 2.95  54 2.95  82 2.95  70 2.96  94 2.96
  47  0.141  0.877  0.010- 163 2.02 115 2.02 183 2.10 151 2.18 131 2.23 104 2.53  75 2.84  19 2.86
                            59 2.86   7 2.87   1 2.91  71 2.91  83 2.95  23 3.05  55 3.06  95 3.06
  48  0.622  0.872  0.009- 164 2.03 132 2.08 184 2.11 116 2.18 103 2.21 152 2.27  96 2.84  84 2.86
                            24 2.88  60 2.89  19 2.90   7 2.93  76 2.94  20 2.96   2 3.02  72 3.02
  49  0.000  0.043  0.251- 106 2.11 153 2.11 172 2.12  97 2.12 146 2.12 163 2.17   8 2.78  15 2.85
                            10 2.85   1 2.92  65 2.93  90 2.94  89 2.94  75 2.94  33 2.94  76 2.96
  50  0.500  0.043  0.251- 105 2.12 154 2.12 145 2.12  98 2.13 164 2.14 171 2.15  34 2.90   7 2.90
                             9 2.90   2 2.91  89 2.94  41 2.94  76 2.94  90 2.94  75 2.94  66 2.95
  51  1.000  0.542  0.250- 108 2.10 148 2.12 155 2.12 161 2.13 170 2.13  99 2.14  44 2.89  35 2.90
[...]
   -.688E+01 -.616E+01 0.240E+01   0.663E+01 0.596E+01 -.223E+01   0.250E+00 0.201E+00 -.170E+00   0.225E-04 -.237E-04 -.201E-03
   -.507E+01 0.365E+01 -.236E+00   0.484E+01 -.348E+01 0.217E+00   0.231E+00 -.172E+00 0.185E-01   -.223E-04 0.132E-04 0.192E-03
   -.550E+01 0.345E+01 -.240E+00   0.525E+01 -.330E+01 0.219E+00   0.257E+00 -.148E+00 0.184E-01   -.253E-04 0.931E-05 0.177E-03
   -.166E+01 0.171E+01 -.256E+01   0.120E+01 -.159E+01 0.252E+01   0.462E+00 -.115E+00 0.456E-01   -.388E-04 0.246E-04 0.177E-03
   -.218E+02 0.673E+00 -.124E+02   0.206E+02 -.520E+00 0.118E+02   0.119E+01 -.150E+00 0.534E+00   0.174E-04 -.836E-06 0.212E-03
   0.544E+01 -.146E+01 -.103E+01   -.518E+01 0.136E+01 0.913E+00   -.261E+00 0.101E+00 0.110E+00   0.819E-05 -.692E-05 0.185E-03
   0.527E+01 -.134E+01 -.948E+00   -.503E+01 0.126E+01 0.842E+00   -.248E+00 0.872E-01 0.104E+00   0.415E-04 -.123E-04 0.191E-03
   0.346E+01 -.619E+01 -.226E+01   -.338E+01 0.596E+01 0.211E+01   -.736E-01 0.236E+00 0.150E+00   0.161E-04 -.415E-05 0.159E-03
   0.114E+02 -.202E+02 -.122E+02   -.107E+02 0.191E+02 0.117E+02   -.712E+00 0.102E+01 0.557E+00   0.222E-04 -.116E-05 0.199E-03
   0.608E+00 0.287E+01 -.262E+00   -.567E+00 -.280E+01 0.235E+00   -.413E-01 -.767E-01 0.260E-01   -.105E-04 -.137E-04 0.200E-03
   -.790E+00 0.375E+01 -.170E+01   0.702E+00 -.369E+01 0.152E+01   0.895E-01 -.720E-01 0.177E+00   0.746E-05 0.187E-05 0.206E-03
   0.258E+01 -.539E+01 -.324E+01   -.248E+01 0.520E+01 0.306E+01   -.974E-01 0.186E+00 0.187E+00   -.307E-04 0.907E-05 0.133E-03
   -.213E+01 -.548E+01 -.112E+01   0.219E+01 0.557E+01 0.113E+01   -.618E-01 -.900E-01 -.131E-01   0.242E-04 0.174E-04 0.211E-03
   0.394E-01 -.858E+00 -.668E+00   -.343E-01 0.854E+00 0.596E+00   -.443E-02 0.525E-02 0.689E-01   -.118E-04 -.259E-05 0.173E-03
   0.207E+00 -.956E+00 -.486E+00   -.188E+00 0.950E+00 0.438E+00   -.189E-01 0.507E-02 0.471E-01   0.244E-04 -.373E-05 0.178E-03
   -.232E+01 0.197E+01 -.467E+01   0.217E+01 -.201E+01 0.434E+01   0.150E+00 0.324E-01 0.329E+00   -.300E-04 -.170E-04 0.149E-03
   0.807E+01 0.155E+02 -.159E+02   -.749E+01 -.145E+02 0.150E+02   -.576E+00 -.102E+01 0.879E+00   0.148E-04 -.994E-05 0.216E-03
   0.370E+00 0.248E+01 0.764E+00   -.312E+00 -.243E+01 -.667E+00   -.571E-01 -.502E-01 -.960E-01   -.128E-04 -.919E-06 -.207E-03
   0.224E-01 0.340E+01 0.452E+00   -.647E-02 -.328E+01 -.417E+00   -.155E-01 -.123E+00 -.341E-01   0.752E-05 -.163E-04 -.191E-03
   -.358E-01 -.250E+01 0.155E+01   0.355E-01 0.243E+01 -.143E+01   0.717E-04 0.698E-01 -.116E+00   0.817E-05 -.234E-05 -.184E-03
   -.869E+00 -.443E+01 0.299E+01   0.823E+00 0.432E+01 -.282E+01   0.468E-01 0.109E+00 -.163E+00   -.121E-04 0.118E-04 -.168E-03
   0.147E-01 -.863E+00 0.492E+00   -.211E-01 0.858E+00 -.445E+00   0.627E-02 0.401E-02 -.447E-01   -.134E-04 -.297E-05 -.179E-03
   -.363E-01 -.719E+00 0.339E+00   0.319E-01 0.723E+00 -.295E+00   0.174E-02 -.230E-02 -.441E-01   0.820E-05 0.355E-05 -.173E-03
   0.684E+01 0.282E+01 0.769E+01   -.640E+01 -.254E+01 -.713E+01   -.436E+00 -.275E+00 -.565E+00   -.696E-04 0.615E-04 -.175E-03
   -.324E+01 0.241E+01 0.412E+01   0.307E+01 -.245E+01 -.376E+01   0.178E+00 0.413E-01 -.360E+00   0.233E-04 -.672E-04 -.166E-03
   0.803E-01 0.426E+01 0.306E+00   -.110E+00 -.417E+01 -.225E+00   0.312E-01 -.904E-01 -.819E-01   -.176E-04 -.429E-04 0.378E-05
   -.478E+00 0.359E+01 -.844E+00   0.475E+00 -.352E+01 0.843E+00   0.272E-02 -.676E-01 0.772E-04   -.574E-05 0.179E-04 -.808E-05
   0.540E-01 -.208E+01 0.913E-01   -.832E-01 0.209E+01 -.508E-01   0.284E-01 -.138E-01 -.406E-01   -.195E-04 0.466E-04 -.754E-05
   -.367E+00 -.236E+01 -.460E+00   0.369E+00 0.233E+01 0.482E+00   -.327E-02 0.315E-01 -.225E-01   -.261E-06 -.632E-05 -.604E-05
   0.401E-01 -.351E+01 0.344E+00   -.488E-01 0.340E+01 -.321E+00   0.769E-02 0.108E+00 -.251E-01   -.332E-05 -.906E-05 0.604E-05
   -.127E+00 -.285E+01 0.738E-01   0.116E+00 0.275E+01 -.764E-01   0.946E-02 0.973E-01 0.119E-02   0.180E-05 0.121E-04 0.107E-04
   0.239E+01 0.576E+01 0.648E+00   -.245E+01 -.582E+01 -.769E+00   0.615E-01 0.571E-01 0.121E+00   -.346E-04 -.429E-04 0.228E-04
   -.380E+01 0.670E+01 0.275E+01   0.356E+01 -.632E+01 -.256E+01   0.246E+00 -.379E+00 -.188E+00   -.357E-04 0.751E-05 -.275E-04
   0.318E-02 0.857E+00 0.428E-01   -.790E-02 -.825E+00 -.302E-01   0.611E-02 -.307E-01 -.142E-01   -.139E-06 0.120E-04 0.601E-05
   -.193E-01 0.832E+00 -.628E-01   0.247E-01 -.807E+00 0.570E-01   -.615E-02 -.235E-01 0.454E-02   0.315E-05 0.583E-05 -.131E-04
   0.142E+01 -.347E+00 -.216E+00   -.137E+01 0.329E+00 0.296E+00   -.543E-01 0.197E-01 -.835E-01   0.749E-05 0.134E-04 0.280E-04
   -.800E+00 -.442E+00 -.402E+01   0.800E+00 0.424E+00 0.418E+01   0.266E-02 0.200E-01 -.163E+00   0.216E-04 -.195E-04 -.128E-04
[...]
   0.229E+02 -.317E+02 0.913E+02   -.260E+02 0.373E+02 -.100E+03   0.305E+01 -.560E+01 0.908E+01   0.494E-03 -.934E-03 0.135E-02
   0.254E+02 -.502E+02 0.890E+02   -.289E+02 0.554E+02 -.979E+02   0.350E+01 -.526E+01 0.892E+01   0.660E-03 -.951E-03 0.179E-02
   0.236E+02 -.599E+02 0.883E+02   -.271E+02 0.653E+02 -.971E+02   0.348E+01 -.543E+01 0.884E+01   0.846E-03 -.114E-02 0.165E-02
   -.240E+02 0.418E+02 -.908E+02   0.273E+02 -.472E+02 0.100E+03   -.337E+01 0.536E+01 -.928E+01   -.583E-03 0.767E-03 -.306E-02
   -.236E+02 0.426E+02 -.914E+02   0.266E+02 -.481E+02 0.101E+03   -.293E+01 0.551E+01 -.941E+01   -.333E-03 0.736E-03 -.278E-02
   -.106E+02 0.248E+02 -.715E+02   0.205E+02 -.277E+02 0.826E+02   -.989E+01 0.292E+01 -.111E+02   -.197E-02 0.104E-02 -.429E-02
   -.598E+02 0.376E+02 -.478E+02   0.634E+02 -.435E+02 0.566E+02   -.358E+01 0.591E+01 -.882E+01   0.454E-03 0.123E-02 -.358E-02
   -.230E+02 -.314E+02 -.917E+02   0.263E+02 0.368E+02 0.101E+03   -.327E+01 -.539E+01 -.909E+01   -.497E-03 -.892E-03 -.141E-02
   -.249E+02 -.306E+02 -.922E+02   0.284E+02 0.360E+02 0.101E+03   -.345E+01 -.536E+01 -.926E+01   -.617E-03 -.731E-03 -.154E-02
   -.145E+02 -.565E+02 -.985E+02   0.177E+02 0.619E+02 0.107E+03   -.317E+01 -.542E+01 -.888E+01   -.861E-03 -.103E-02 -.177E-02
   -.404E+02 -.735E+02 -.123E+03   0.435E+02 0.782E+02 0.131E+03   -.308E+01 -.476E+01 -.794E+01   -.311E-03 -.715E-03 -.113E-02
   0.245E+02 0.419E+02 0.910E+02   -.278E+02 -.473E+02 -.100E+03   0.332E+01 0.538E+01 0.933E+01   0.298E-03 0.823E-03 0.288E-02
   0.230E+02 0.426E+02 0.912E+02   -.260E+02 -.481E+02 -.101E+03   0.300E+01 0.552E+01 0.931E+01   0.607E-03 0.728E-03 0.296E-02
   0.292E+02 0.365E+02 0.905E+02   -.331E+02 -.420E+02 -.997E+02   0.391E+01 0.553E+01 0.917E+01   0.900E-04 0.135E-02 0.320E-02
   0.613E+01 0.101E+02 0.691E+01   0.000E+00 0.725E-12 -.668E-12   -.613E+01 -.101E+02 -.690E+01   -.781E-03 -.153E-02 -.407E-02

 POSITION                                       TOTAL-FORCE (eV/Angst)
      1.21759      0.72973      0.02344        -0.000892      0.002688      0.001154
      6.30830      0.75374      0.00932        -0.002252      0.001953     -0.000890
      1.23327      9.54062     -0.00124         0.000152     -0.000401     -0.001483
      4.60444      9.53289      9.65453         0.001523      0.002091      0.000398
      3.86095      8.13143      0.00046         0.001824      0.000271     -0.000694
      8.95729      8.11442     -0.00622         0.001640      0.000763     -0.000999
      3.86880     17.01904      0.01782        -0.002875     -0.001441     -0.001240
      8.93469     17.13911      0.10780         0.004775     -0.001740      0.002043
      3.02296      0.73187      4.81217        -0.000963     -0.000726      0.000334
      8.14439      0.79364      4.76464         0.000636      0.000176     -0.003003
      2.99814      9.53332      4.82422        -0.001754      0.003213      0.001219
      8.08627      9.50746      4.81413        -0.001011     -0.002094      0.000640
      0.36568      8.11975      4.81228        -0.001807      0.001675     -0.001090
      5.45576      8.12307      4.80559        -0.001869     -0.000810     -0.000441
      0.39732     17.05278      4.76639         0.002830      0.002756     -0.000200
      5.47730     16.94928      4.83028         0.000600     -0.002337      0.002529
      2.04851      5.14423      9.65956        -0.000423      0.000565      0.000336
      8.86828      5.14509     -0.00683        -0.001599     -0.000126     -0.000169
      3.82147     13.96269      0.00500        -0.000431     -0.000054      0.000210
      7.15248     13.94167      9.63126        -0.002307     -0.000951     -0.000905
      1.30812      3.74833      0.02847        -0.001666      0.000214      0.000574
      6.40399      3.74061      0.00281        -0.002217      0.001388      0.001339
      1.35721     12.47013      0.05948         0.000675      0.001414      0.004428
      6.40369     12.54083      0.02468         0.000752      0.002026      0.001366
      0.45777      5.14485      4.82375        -0.000466      0.000935     -0.001017
      5.54653      5.13710      4.81410         0.000884      0.002456     -0.002165
      0.40732     13.96473      4.82604         0.003724      0.001622      0.001884
      5.35745     13.93155      4.72660        -0.008789      0.002371      0.000472
      2.91644      3.73340      4.80061         0.002186     -0.001503     -0.001854
      8.01434      3.74063      4.79500         0.000834      0.000346     -0.001186
      2.88041     12.52300      4.81293        -0.002522     -0.001172      0.000626
      8.07295     12.34530      4.73007         0.000031     -0.007829      0.000652
      0.42299      2.23652      4.83496         0.000097     -0.001661     -0.000523
      5.46695      2.22062      4.78102         0.000950     -0.003111     -0.002200
      0.43108     11.00259      4.78503        -0.002765      0.001428     -0.000690
      5.50982     11.05470      4.82638        -0.001117     -0.002681     -0.002021
      2.95330      6.63048      4.81011         0.000588      0.001398     -0.002424
      8.05106      6.62526      4.80683         0.000049     -0.001057     -0.001406
      2.91791     15.44604      4.74592         0.000353     -0.001426     -0.001589
      8.15461     15.64496      4.76491         0.004960      0.003907      0.000510
      3.84000      2.22632      0.01025         0.001405     -0.001019      0.000354
      7.19678      2.25081      9.64557         0.000486     -0.003154     -0.000030
      3.82429     11.02797      0.01717        -0.000229     -0.000441      0.002413
      8.90896     11.00383      0.03038         0.000278      0.000813     -0.000910
      1.27040      6.63361      0.00278        -0.000171     -0.000072      0.001558
      6.36615      6.63057     -0.00715        -0.002608      0.001281      0.000058
      1.42150     15.51895      0.09224        -0.002443      0.001109     -0.001796
      6.32106     15.42220      0.08005         0.006794      0.000006      0.005081
     -0.42936      0.76923      2.42881         0.001274     -0.001189     -0.001430
      4.66419      0.75514      2.41619         0.000551      0.001181     -0.000767
      9.75554      9.58062      2.39922        -0.000773      0.002458     -0.000125
      4.66234      9.58095      2.41518        -0.001245     -0.002516     -0.000616
      8.88921      8.08720      7.23166        -0.001013     -0.001717     -0.001542
      3.79079      8.08299      7.23849        -0.000989     -0.002126     -0.001428
      8.88303     16.92043      7.21915        -0.000886     -0.000652     -0.000039
      3.75867     17.02758      7.26039        -0.000620      0.002381     -0.001976
      2.11425      5.17319      2.41199         0.001392      0.000969     -0.001548
      7.21049      5.17154      2.40026        -0.000678      0.001836     -0.001307
      2.11724     14.00411      2.41973         0.003506      0.001691     -0.003183
      7.21297     14.00777      2.43861         0.001763      0.001377      0.001782
[...]
      3.01939      3.59544      1.28471        -0.000640      0.000409      0.000828
      8.11519      3.59698      1.27841         0.000993      0.001335     -0.002867
      3.03076     12.42757      1.28779        -0.001774      0.003453      0.000028
      8.11679     12.43210      1.28001        -0.000436      0.001395     -0.003771
      0.34412      5.26031      8.36816        -0.000002      0.000133     -0.006349
      5.43891      5.25498      8.35558         0.000253     -0.000968     -0.001357
      0.43874     14.05165      8.45505        -0.001052     -0.002436      0.001948
      5.45847     14.07687      8.36298         0.002394     -0.003367     -0.000095
      1.21216      3.59553      3.53542         0.001356      0.002265      0.001977
      6.30165      3.59618      3.52273         0.002675      0.001305      0.000865
      1.20088     12.43160      3.53666         0.001910      0.003558      0.002781
      6.30885     12.44532      3.55165         0.000585      0.005178      0.002217
      2.15324      5.25964      6.11773         0.000330     -0.000557      0.002317
      7.25161      5.25258      6.11155         0.001570      0.000107      0.002968
      2.18575     14.09309      6.11037         0.003311     -0.003033      0.003201
    total drift:                               -0.000139     -0.005541      0.001851

  FREE ENERGIE OF THE ION-ELECTRON SYSTEM (eV)
  free  energy   TOTEN  =     -1345.53448100 eV

  energy  without entropy=    -1345.53448100  energy(sigma->0) =    -1345.53448100

 reached required accuracy - stopping structural energy minimisation

 total charge

# of ion     s       p       d       tot
  1        0.081   0.173   0.000   0.254
  2        0.082   0.175   0.000   0.257
  3        0.080   0.172   0.000   0.253
  4        0.082   0.176   0.000   0.257
  5        0.081   0.173   0.000   0.254
  6        0.081   0.174   0.000   0.254
  7        0.080   0.172   0.000   0.253
  8        0.084   0.179   0.000   0.263
  9        0.081   0.174   0.000   0.255
 10        0.082   0.176   0.000   0.258
 11        0.081   0.174   0.000   0.255
 12        0.081   0.174   0.000   0.255
 13        0.081   0.174   0.000   0.255
 14        0.081   0.174   0.000   0.255
 15        0.082   0.175   0.000   0.257
 16        0.081   0.173   0.000   0.254
 17        0.081   0.173   0.000   0.254
 18        0.081   0.174   0.000   0.255
 19        0.083   0.178   0.000   0.260
 20        0.080   0.172   0.000   0.252
 21        0.081   0.174   0.000   0.255
 22        0.081   0.173   0.000   0.254
 23        0.084   0.183   0.000   0.267
 24        0.082   0.176   0.000   0.258
 25        0.081   0.174   0.000   0.255
 26        0.081   0.174   0.000   0.255
 27        0.081   0.174   0.000   0.255
 28        0.093   0.202   0.000   0.296
 29        0.081   0.174   0.000   0.255
 30        0.081   0.173   0.000   0.254
 31        0.081   0.174   0.000   0.255
 32        0.093   0.202   0.000   0.295
 33        0.083   0.177   0.000   0.260
 34        0.083   0.178   0.000   0.260
 35        0.083   0.178   0.000   0.262
 36        0.083   0.179   0.000   0.262
 37        0.082   0.177   0.000   0.259
 38        0.083   0.177   0.000   0.260
 39        0.084   0.180   0.000   0.264
 40        0.084   0.178   0.000   0.262
 41        0.083   0.178   0.000   0.261
 42        0.083   0.178   0.000   0.260
 43        0.082   0.176   0.000   0.258
 44        0.083   0.178   0.000   0.261
 45        0.083   0.177   0.000   0.260
 46        0.082   0.177   0.000   0.259
 47        0.085   0.182   0.000   0.267
 48        0.084   0.181   0.000   0.265
 49        0.089   0.198   0.000   0.286
 50        0.087   0.195   0.000   0.282
 51        0.088   0.197   0.000   0.285
 52        0.087   0.195   0.000   0.282
 53        0.088   0.196   0.000   0.284
 54        0.088   0.196   0.000   0.284
 55        0.084   0.185   0.000   0.270
 56        0.090   0.200   0.000   0.289
 57        0.088   0.196   0.000   0.284
 58        0.088   0.196   0.000   0.284
 59        0.087   0.195   0.000   0.282
 60        0.088   0.194   0.000   0.282
[...]
177        1.588   3.488   0.000   5.076
178        1.588   3.488   0.000   5.076
179        1.587   3.490   0.000   5.077
180        1.588   3.486   0.000   5.074
181        1.588   3.487   0.000   5.075
182        1.588   3.488   0.000   5.076
183        1.595   3.479   0.000   5.073
184        1.587   3.486   0.000   5.073
185        1.588   3.489   0.000   5.076
186        1.588   3.488   0.000   5.076
187        1.587   3.488   0.000   5.075
188        1.585   3.482   0.000   5.066
189        1.588   3.488   0.000   5.076
190        1.588   3.488   0.000   5.076
191        1.588   3.483   0.000   5.071
tot      174.317 377.293  84.870 636.479